N = 100;
MinK = 10;
Capacity = 200;

Scale = 10;
DistanceRoundingMode = Floor;
X = array1d(0..N, [40, 25, 22, 22, 20, 20, 18, 15, 15, 10, 10, 8, 8, 5, 5, 2, 0, 0, 44, 42, 42, 40, 40, 38, 38, 35, 95, 95, 92, 90, 88, 88, 87, 85, 85, 67, 65, 65, 62, 60, 60, 58, 55, 55, 55, 20, 18, 2, 42, 42, 72, 55, 25, 20, 55, 30, 50, 30, 15, 10, 15, 45, 65, 65, 45, 35, 41, 64, 40, 31, 35, 65, 63, 2, 20, 5, 60, 23, 8, 6, 47, 49, 27, 37, 57, 63, 21, 12, 24, 67, 37, 49, 53, 61, 57, 56, 55, 4, 26, 26, 31]);
Y = array1d(0..N, [50, 85, 75, 85, 80, 85, 75, 75, 80, 35, 40, 40, 45, 35, 45, 40, 40, 45, 5, 10, 15, 5, 15, 5, 15, 5, 30, 35, 30, 35, 30, 35, 30, 25, 35, 85, 85, 82, 80, 80, 85, 75, 80, 85, 82, 82, 80, 45, 5, 12, 35, 20, 30, 50, 60, 60, 35, 25, 10, 20, 60, 65, 35, 20, 30, 40, 37, 42, 60, 52, 69, 55, 65, 60, 20, 5, 12, 3, 56, 68, 47, 58, 43, 31, 29, 23, 24, 24, 58, 5, 47, 42, 43, 52, 48, 37, 54, 18, 52, 35, 67]);

Demands = array1d(1..N, [20, 30, 10, 40, 20, 20, 20, 10, 20, 30, 40, 20, 10, 10, 20, 20, 20, 20, 40, 10, 10, 40, 30, 10, 20, 30, 20, 10, 10, 10, 20, 10, 10, 30, 20, 40, 10, 30, 10, 30, 20, 10, 20, 10, 10, 10, 10, 10, 10, 30, 19, 3, 5, 16, 16, 19, 23, 20, 19, 17, 9, 3, 6, 17, 16, 16, 9, 21, 27, 23, 14, 8, 5, 8, 16, 31, 7, 27, 30, 13, 10, 9, 14, 18, 2, 28, 13, 19, 25, 6, 13, 14, 3, 23, 6, 26, 35, 9, 15, 3]);

ServiceTimes = array1d(1..N, [10, 10, 10, 10, 10, 10, 10, 10, 10, 10, 10, 10, 10, 10, 10, 10, 10, 10, 10, 10, 10, 10, 10, 10, 10, 10, 10, 10, 10, 10, 10, 10, 10, 10, 10, 10, 10, 10, 10, 10, 10, 10, 10, 10, 10, 10, 10, 10, 10, 10, 10, 10, 10, 10, 10, 10, 10, 10, 10, 10, 10, 10, 10, 10, 10, 10, 10, 10, 10, 10, 10, 10, 10, 10, 10, 10, 10, 10, 10, 10, 10, 10, 10, 10, 10, 10, 10, 10, 10, 10, 10, 10, 10, 10, 10, 10, 10, 10, 10, 10]);

TimeWindows = array2d(1..2, 0..N, [|
    0,   0,   0,   0, 141,   0,   0,   0,  91,  91,   0, 59,   0, 142,   0, 58,   0,   0,   0,   0,   0,   0,   0, 65,   0, 154,   0,   0,   0,   0,   0,   0,   0,   0,   0,   0,   0,   0,  75,   0,   0,   0,   0,   0, 64,   0,   0,   0,   0,   0,   0,   0,   0,  91,   0, 140,   0,   0, 152,   0,   0,   0, 52,   0,   0,   0,   0,  70,   0, 41,   0,   0,   0,   0, 141,   0,  75, 150,   0,  89,   0,   0,   0,   0,  96,   0,   0,  90,   0,   0,   0,   0, 14,   0,   0,   0,   0,   0,   0,  77, 180 |
  240, 191, 199, 190, 171, 189, 196, 194, 121, 121, 198, 89, 197, 172, 194, 88, 188, 189, 184, 189, 194, 185, 195, 95, 194, 184, 171, 172, 174, 177, 178, 179, 178, 178, 182, 185, 186, 189, 105, 193, 189, 199, 196, 191, 94, 192, 192, 191, 184, 191, 194, 196, 205, 121, 211, 170, 211, 203, 182, 187, 203, 214, 82, 190, 209, 218, 216, 100, 220, 71, 210, 204, 202, 190, 171, 172, 105, 180, 197, 119, 222, 217, 215, 210, 126, 194, 197, 120, 212, 177, 225, 217, 44, 208, 212, 209, 214, 181, 215, 107, 210
|]);
